# Objective value = 0
x2 0
x4 0
x7 0
x9 0
x11 0
x15 0
x16 1
x17 0
x19 0
x20 1
x1 1
x5 1
x6 1
x10 1
x12 1
x14 1
x13 1
x3 0
x18 0
x8 1
x0 1
r0 1
r1 0
r2 0
r3 0
r4 0
r5 0
r6 0
r7 1
r8 1
r9 0
r10 0
r11 0
r12 0
r13 0
r14 0
r15 0
r16 0
r17 0
r18 0
r19 1
r20 1
r21 0
r22 0
r23 0
r24 0
r25 1
r26 0
r27 1
r28 0
r29 0
r30 0
r31 1
r32 0
r33 0
r34 1
r35 0
r36 0
r37 0
r38 1
r39 0
r40 1
r41 0
r42 0
r43 1
r44 0
r45 1
r46 0
r47 0
r48 0
r49 0
r50 0
r51 0
r52 0
r53 0
r54 0
r55 0
r56 0
r57 0
r58 1
r59 0
r60 0
r61 0
r62 0
r63 1
r64 0
r65 0
r66 0
r67 1
r68 0
r69 0
r70 1
r71 1
r72 0
r73 0
r74 1
r75 0
r76 0
r77 0
r78 1
r79 0
r80 1
r81 0
r82 0
r83 0
r84 0
r85 1
r86 0
r87 0
r88 1
r89 0
r90 0
r91 1
r92 0
r93 1
r94 1
r95 1
r96 0
r97 1
r98 0
r99 0
r100 0
r101 1
r102 0
r103 1
r104 1
r105 0
r106 0
r107 0
r108 0
r109 0
r110 0
r111 1
r112 0
r113 1
r114 0
r115 0
r116 1
r117 0
r118 0
r119 0
r120 0
r121 0
r122 0
r123 0
r124 0
r125 0
r126 0
r127 0
r128 0
r129 1
r130 0
r131 0
r132 0
r133 1
r134 0
r135 0
r136 1
r137 0
r138 0
r139 0
r140 1
r141 0
r142 0
r143 1
r144 0
r145 0
r146 0
r147 0
r148 0
r149 1
r150 0
r151 0
r152 1
r153 0
r154 0
r155 0
r156 0
r157 1
r158 0
r159 0
r160 0
r161 1
r162 1
r163 0
r164 0
r165 1
r166 0
r167 0
r168 0
r169 0
r170 0
r171 0
r172 1
r173 0
r174 0
r175 0
r176 0
r177 0
r178 0
r179 1
r180 1
r181 0
r182 0
r183 0
r184 0
r185 0
r186 0
r187 0
r188 1
r189 0
r190 0
r191 1
r192 0
r193 0
r194 0
r195 0
r196 1
r197 0
